p tdp 20 114
1 3
1 5
1 7
1 8
1 10
1 12
1 16
1 18
1 19
1 20
2 3
2 4
2 5
2 7
2 9
2 10
2 11
2 13
2 14
2 15
2 17
2 18
2 19
3 5
3 6
3 8
3 9
3 11
3 12
3 13
3 16
3 17
3 18
3 20
4 6
4 8
4 10
4 12
4 13
4 15
4 16
4 17
4 18
4 19
5 6
5 8
5 9
5 14
5 16
5 17
6 9
6 12
6 13
6 15
6 16
6 17
6 18
6 19
7 8
7 9
7 10
7 11
7 12
7 13
7 14
7 18
7 19
7 20
8 10
8 14
8 15
8 16
8 18
8 20
9 11
9 12
9 13
9 15
9 16
9 17
9 18
9 20
10 11
10 12
10 13
10 15
10 17
11 12
11 13
11 17
11 18
11 19
11 20
12 13
12 15
12 17
12 20
13 15
13 16
13 18
13 19
13 20
14 17
14 18
14 20
15 17
15 20
16 17
16 18
16 20
17 19
18 19
18 20
19 20
